variable	T		equal 0.75 
variable        duration        equal 5E4
variable        save_period     equal ${duration}/100

units          	lj 
dimension       3
boundary        p p p
read_restart	begin.restart

mass            1 1
mass            2 1

reset_timestep 0

pair_style      lj/cut 2.5		# Kobb Andersen 
pair_coeff      1 1 1.0 1.00 2.5
pair_coeff      2 2 0.5 0.88 2.5
pair_coeff      1 2 1.5 0.80 2.5
pair_modify     shift yes
neighbor 	0.3 bin


fix 		myplumed all  plumed plumedfile "plumed.dat"
fix             mynvt  all npt temp ${T} ${T} 1.0 iso 0 0 1.0
run		0
read_dump	Metadynamics.trj 0 x y z  # Here, I selected an appropriate initial structure. But, in practice one needs to find it. 
velocity 	all create ${T} xSeed 
reset_timestep	0

dump            001 all atom ${save_period} dump.lammpstrj
dump_modify	001 sort id

thermo		${save_period}
run             ${duration}
